//Dat File

outFile="MPVSBPP_SET1_IT200_ITV2_NT2_TS3_WT1_VT1_REP10";
m=200;
o=126;
p=3;
numVTypes=3;

demand = [5, 7, 2, 7, 8, 1, 8, 11, 1, 10, 10, 1, 9, 5, 6, 3, 8, 10, 6, 11, 10, 1, 1, 9, 11, 1, 3, 10, 2, 3, 8, 3, 5, 4, 7, 2, 11, 6, 4, 2, 8, 10, 2, 1, 11, 11, 6, 11, 4, 2, 8, 1, 4, 1, 2, 2, 2, 3, 5, 5, 3, 2, 3, 11, 9, 2, 7, 9, 3, 9, 3, 5, 7, 9, 8, 10, 1, 2, 11, 4, 2, 8, 1, 11, 1, 2, 4, 2, 6, 7, 4, 8, 7, 6, 2, 6, 9, 11, 9, 7, 19, 19, 13, 17, 19, 12, 19, 14, 16, 15, 13, 13, 16, 19, 15, 17, 15, 19, 18, 13, 16, 12, 19, 19, 18, 14, 13, 12, 13, 15, 12, 16, 16, 14, 19, 14, 14, 15, 13, 17, 19, 16, 13, 19, 14, 19, 18, 14, 17, 18, 19, 14, 14, 12, 16, 15, 14, 12, 16, 12, 19, 12, 15, 12, 16, 19, 18, 14, 12, 18, 16, 17, 12, 12, 16, 14, 18, 15, 19, 17, 16, 18, 17, 19, 14, 12, 16, 15, 19, 12, 15, 17, 17, 17, 13, 16, 14, 13, 15, 15];
Depot_Cap = [30000, 30000, 30000];
Tarif = [10, 3, 7];
VeicVolume = [100, 150, 200];
VeicCost = [100, 120, 140];
VeicType = [1, 1, 1, 1, 1, 1, 1, 1, 1, 1, 1, 1, 1, 1, 1, 1, 1, 1, 1, 1, 1, 1, 1, 1, 1, 1, 1, 1, 1, 1, 1, 1, 1, 1, 1, 1, 1, 1, 1, 1, 1, 1, 2, 2, 2, 2, 2, 2, 2, 2, 2, 2, 2, 2, 2, 2, 2, 2, 2, 2, 2, 2, 2, 2, 2, 2, 2, 2, 2, 2, 2, 2, 2, 2, 2, 2, 2, 2, 2, 2, 2, 2, 2, 2, 3, 3, 3, 3, 3, 3, 3, 3, 3, 3, 3, 3, 3, 3, 3, 3, 3, 3, 3, 3, 3, 3, 3, 3, 3, 3, 3, 3, 3, 3, 3, 3, 3, 3, 3, 3, 3, 3, 3, 3, 3, 3];
Elect_vehicle = [[70, 100, 30], [70, 100, 30], [70, 100, 30], [70, 100, 30], [70, 100, 30], [70, 100, 30], [70, 100, 30], [70, 100, 30], [70, 100, 30], [70, 100, 30], [70, 100, 30], [70, 100, 30], [70, 100, 30], [70, 100, 30], [70, 100, 30], [70, 100, 30], [70, 100, 30], [70, 100, 30], [70, 100, 30], [70, 100, 30], [70, 100, 30], [70, 100, 30], [70, 100, 30], [70, 100, 30], [70, 100, 30], [70, 100, 30], [70, 100, 30], [70, 100, 30], [70, 100, 30], [70, 100, 30], [70, 100, 30], [70, 100, 30], [70, 100, 30], [70, 100, 30], [70, 100, 30], [70, 100, 30], [70, 100, 30], [70, 100, 30], [70, 100, 30], [70, 100, 30], [70, 100, 30], [70, 100, 30], [80, 120, 30], [80, 120, 30], [80, 120, 30], [80, 120, 30], [80, 120, 30], [80, 120, 30], [80, 120, 30], [80, 120, 30], [80, 120, 30], [80, 120, 30], [80, 120, 30], [80, 120, 30], [80, 120, 30], [80, 120, 30], [80, 120, 30], [80, 120, 30], [80, 120, 30], [80, 120, 30], [80, 120, 30], [80, 120, 30], [80, 120, 30], [80, 120, 30], [80, 120, 30], [80, 120, 30], [80, 120, 30], [80, 120, 30], [80, 120, 30], [80, 120, 30], [80, 120, 30], [80, 120, 30], [80, 120, 30], [80, 120, 30], [80, 120, 30], [80, 120, 30], [80, 120, 30], [80, 120, 30], [80, 120, 30], [80, 120, 30], [80, 120, 30], [80, 120, 30], [80, 120, 30], [80, 120, 30], [90, 140, 40], [90, 140, 40], [90, 140, 40], [90, 140, 40], [90, 140, 40], [90, 140, 40], [90, 140, 40], [90, 140, 40], [90, 140, 40], [90, 140, 40], [90, 140, 40], [90, 140, 40], [90, 140, 40], [90, 140, 40], [90, 140, 40], [90, 140, 40], [90, 140, 40], [90, 140, 40], [90, 140, 40], [90, 140, 40], [90, 140, 40], [90, 140, 40], [90, 140, 40], [90, 140, 40], [90, 140, 40], [90, 140, 40], [90, 140, 40], [90, 140, 40], [90, 140, 40], [90, 140, 40], [90, 140, 40], [90, 140, 40], [90, 140, 40], [90, 140, 40], [90, 140, 40], [90, 140, 40], [90, 140, 40], [90, 140, 40], [90, 140, 40], [90, 140, 40], [90, 140, 40], [90, 140, 40]];